peakDumbCharging = 29600; 
Machine = anon_enum(16); 
machineSpeed = [3700,3700,3700,3700,3700,3700,3700,3700,3700,3700,3700,3700,3700,3700,3700,3700]; 
machineLoad = [3700,3700,3700,3700,3700,3700,3700,3700,3700,3700,3700,3700,3700,3700,3700,3700]; 
Car = anon_enum(36); 
demandCar = [25200,720,1720,4480,16640,6360,8560,3760,3320,8160,17880,7400,5840,5480,7080,20160,16880,29760,1440,4360,2840,21960,8040,3080,9440,8680,5720,21720,3080,24880,24360,12200,9160,5000,3000,7320]; 
arrivalCar = [86,85,85,72,70,70,68,66,66,66,65,64,64,63,63,62,59,59,59,57,56,56,56,52,50,50,50,50,48,46,45,44,43,42,41,39]; 
departureCar = [94,86,86,74,76,73,72,69,68,72,74,68,68,68,68,69,67,70,61,59,58,65,60,54,58,66,55,59,51,56,54,48,46,44,44,42]; 
